db/data/79873124331684696313459668856230947.z3.out
unsat
-------------------
13.557908762
